20
10	108	55	58	41
1	61	3	29	31
6	100	23	83	31
9	74	6	36	76
8	106	73	70	1
4	101	50	89	76
5	112	6	2	48
2	41	83	38	21
8	50	82	67	62
10	115	39	67	19
9	24	15	1	81
3	104	31	32	48
8	104	25	45	37
5	42	54	16	5
2	17	44	89	6
9	108	52	82	61
5	65	43	25	63
8	65	5	14	3
5	50	50	98	24
1	49	30	78	93
